ws_main/src/planner/exploration/lkh_tsp_solver/resource/single.tsp
NAME : single
TYPE : ATSP
DIMENSION : 8
EDGE_WEIGHT_TYPE : EXPLICIT
EDGE_WEIGHT_FORMAT : FULL_MATRIX
EDGE_WEIGHT_SECTION
0 898 853 654 619 617 555 9999900 
9999900 0 107 223 378 325 252 375 
9999900 107 0 317 309 217 205 319 
9999900 223 317 0 588 535 308 233 
9999900 378 309 588 0 150 279 639 
9999900 325 217 535 150 0 226 433 
9999900 252 205 308 279 226 0 488 
0 9999900 9999900 9999900 9999900 9999900 9999900 0 
EOF