ws_main/src/planner/exploration/lkh_tsp_solver/resource/single.txt
NAME : single.1198.tour
COMMENT : Length = 1198
COMMENT : Found by LKH [Keld Helsgaun] Mon Mar 16 16:36:00 2026
TYPE : TOUR
DIMENSION : 5
TOUR_SECTION
1
2
4
3
5
-1
EOF
